WARNING: for repeatability, setting FPU to use double precision
============================[ Problem Statistics ]=============================
|                                                                             |
|  Number of variables:            50                                         |
|  Number of clauses:             218                                         |
|  Parse time:                   0.00 s                                       |
|                                                                             |
============================[ Search Statistics ]==============================
| Conflicts |          ORIGINAL         |          LEARNT          | Progress |
|           |    Vars  Clauses Literals |    Limit  Clauses Lit/Cl |          |
===============================================================================
===============================================================================
restarts              : 1
conflicts             : 60             (37927 /sec)
decisions             : 73             (0.00 % random) (46144 /sec)
propagations          : 920            (581542 /sec)
conflict literals     : 210            (20.45 % deleted)
Memory used           : 20.00 MB
CPU time              : 0.001582 s

SATISFIABLE
